; benchmark generated from python API
(set-info :status unknown)
(declare-fun S_2 () Real)
(declare-fun C () Real)
(declare-fun A_1 () Real)
(declare-fun L_1 () Real)
(declare-fun S_3 () Real)
(declare-fun A_3 () Real)
(declare-fun L_2 () Real)
(declare-fun A_2 () Real)
(declare-fun S_0 () Real)
(declare-fun S_1 () Real)
(declare-fun A_0 () Real)
(declare-fun L_0 () Real)
(assert
 (let (($x1336 (<= (+ (* (- 1.0) L_1) L_2) 0.0)))
 (let (($x1080 (<= (+ (* (- 1.0) C) (* (- 1.0) L_1) A_1 L_0 (* (- 1.0) A_0)) 0.0)))
 (let (($x872 (<= (+ C L_2 (* (- 1.0) L_1) A_1 (* (- 1.0) A_2)) 0.0)))
 (let ((?x500 (* (- 1.0) A_2)))
 (let ((?x856 (* (- 1.0) S_1)))
 (let ((?x1126 (* (- 2.0) L_1)))
 (let (($x1647 (<= (+ ?x1126 A_1 C ?x856 L_2 A_0 ?x500) 0.0)))
 (let (($x878 (<= (+ A_0 (* 2.0 C) (* (- 1.0) L_0) L_2 ?x500) 0.0)))
 (let (($x1078 (<= (+ A_2 (* (- 1.0) L_2) (* (- 1.0) C) L_1 (* (- 1.0) A_1)) 0.0)))
 (let (($x876 (<= (+ A_0 C (* (- 1.0) L_0) L_1 (* (- 1.0) A_1)) 0.0)))
 (let ((?x546 (* (- 1.0) A_0)))
 (let ((?x496 (* (- 1.0) L_2)))
 (let ((?x859 (* (- 1.0) C)))
 (let ((?x525 (* (- 1.0) A_1)))
 (let (($x1631 (<= (+ (* 2.0 L_1) ?x525 ?x859 S_0 ?x496 ?x546 A_2) 0.0)))
 (let ((?x478 (* (- 1.0) L_0)))
 (let ((?x487 (* (- 1.0) L_1)))
 (let (($x428 (= ?x487 ?x478)))
 (let (($x864 (<= (+ (* (- 2.0) A_0) (* (- 2.0) C) L_0 S_0 ?x496 L_1 A_2) 0.0)))
 (let (($x4038 (or $x428 (not $x1080) (<= (+ A_2 ?x496 (* (- 2.0) C) L_0 ?x546) 0.0) $x1631)))
 (let (($x858 (<= (+ (* 2.0 A_0) (* 2.0 C) ?x478 ?x856 L_2 ?x487 ?x500) 0.0)))
 (let (($x785 (not $x876)))
 (let (($x1048 (<= (+ A_2 ?x496 (* (- 1.0) S_3)) 0.0)))
 (let (($x1346 (or $x785 (<= (+ A_0 (* (- 1.0) S_3) (* 2.0 C) ?x478) 0.0) $x1048)))
 (let (($x1193 (or (<= (+ A_0 C ?x478 (* (- 1.0) S_2)) 0.0) (<= (+ ?x487 A_1 (* (- 1.0) S_2)) 0.0))))
 (and (<= ?x487 ?x478) (<= ?x496 ?x487) $x1193 $x1346 (or $x876 $x1048 (<= (+ ?x487 A_1 (* (- 1.0) S_3) C) 0.0)) (or $x872 (<= (+ ?x487 ?x856 A_0) 0.0) $x1336) (or $x785 (not $x878) $x858 $x1336) $x4038 (or $x428 $x864 $x1078) (or $x428 $x1078 $x1631) (or $x876 $x1078 $x1336 $x1647) (or (not $x872) $x878 $x1336 $x1647) (or $x872 $x1080 $x1336) (<= (+ ?x546 ?x859 L_0 S_1) 0.0) (<= (+ ?x546 (* (- 2.0) C) L_0 S_2) 0.0) (<= (+ ?x546 S_3 (* (- 3.0) C) L_0) 0.0) (<= (+ S_0 L_0 ?x546) 0.0) (<= (+ L_1 ?x525 S_1) 0.0) (<= (+ ?x856 S_0) 0.0) (<= (+ ?x500 L_2 S_2) 0.0) (<= (+ ?x500 L_2 S_3 ?x859) 0.0) (<= (+ L_2 S_3 (* (- 1.0) A_3)) 0.0) (<= (+ S_3 L_1 ?x525 (* (- 2.0) C)) 0.0) (<= (+ L_1 ?x525 ?x859 S_2) 0.0))))))))))))))))))))))))))))
(check-sat)
